Gurobi Optimizer version 9.1.0 build v9.1.0rc0 (linux64)
Thread count: 8 physical cores, 16 logical processors, using up to 16 threads
Optimize a model with 156424 rows, 151200 columns and 877950 nonzeros
Model fingerprint: 0x4ecfd81d
Variable types: 0 continuous, 151200 integer (151200 binary)
Coefficient statistics:
  Matrix range     [1e+00, 1e+00]
  Objective range  [1e+01, 3e+04]
  Bounds range     [1e+00, 1e+00]
  RHS range        [1e+00, 2e+02]
Presolve added 0 rows and 2450 columns
Presolve removed 50 rows and 0 columns
Presolve time: 3.60s
Presolved: 156374 rows, 153650 columns, 635350 nonzeros
Variable types: 0 continuous, 153650 integer (153650 binary)
Found heuristic solution: objective 561193.00000

Concurrent LP optimizer: primal simplex, dual simplex, and barrier
Showing barrier log only...

Root barrier log...

Ordering time: 0.61s

Barrier statistics:
 Dense cols : 600
 AA' NZ     : 4.894e+05
 Factor NZ  : 2.609e+06 (roughly 150 MBytes of memory)
 Factor Ops : 1.141e+09 (less than 1 second per iteration)
 Threads    : 6

                  Objective                Residual
Iter       Primal          Dual         Primal    Dual     Compl     Time
   0   1.29833093e+08 -1.80170793e+08  3.59e+02 3.17e+01  9.94e+03     7s
   1   1.35204798e+06 -2.07816927e+08  2.16e+00 7.24e+02  5.17e+02     7s
   2   7.89581134e+05 -1.09407886e+08  5.45e-01 3.65e+02  2.54e+02     8s
   3   6.74307157e+05 -4.72078523e+07  1.92e-01 1.49e+02  1.08e+02     8s
   4   6.10623819e+05 -2.61275454e+06  6.72e-03 2.09e+01  7.15e+00     8s
   5   5.94340775e+05 -2.58112671e+05  3.38e-03 3.92e+00  1.88e+00     9s
   6   5.75323315e+05  7.04899578e+04  2.32e-03 2.16e+00  1.11e+00     9s
   7   5.64737404e+05  2.22941910e+05  1.92e-03 1.32e+00  7.52e-01     9s
   8   5.53664247e+05  3.41902235e+05  1.49e-03 6.61e-01  4.65e-01     9s
   9   5.45886600e+05  4.08512762e+05  1.27e-03 3.68e-01  3.01e-01    10s
  10   5.42609826e+05  4.28560492e+05  1.19e-03 2.66e-01  2.49e-01    10s
  11   5.27465196e+05  4.50010536e+05  7.94e-04 1.67e-01  1.69e-01    11s
  12   5.19574334e+05  4.66268604e+05  6.15e-04 9.50e-02  1.16e-01    11s
  13   5.14667307e+05  4.74004007e+05  5.07e-04 6.46e-02  8.86e-02    12s
  14   5.09797661e+05  4.79196228e+05  4.04e-04 4.36e-02  6.66e-02    12s
  15   5.06443388e+05  4.82853765e+05  3.33e-04 2.96e-02  5.13e-02    12s
  16   5.02622082e+05  4.84769093e+05  2.53e-04 2.23e-02  3.88e-02    13s
  17   5.00987400e+05  4.85720251e+05  2.19e-04 1.87e-02  3.32e-02    13s
  18   5.00313910e+05  4.86457401e+05  2.04e-04 1.58e-02  3.01e-02    13s
  19   4.98136677e+05  4.87241805e+05  1.61e-04 1.28e-02  2.37e-02    14s
  20   4.96906973e+05  4.87683762e+05  1.36e-04 1.08e-02  2.01e-02    14s
  21   4.95669451e+05  4.88010060e+05  1.10e-04 9.50e-03  1.67e-02    15s
  22   4.95226342e+05  4.88251749e+05  1.01e-04 8.57e-03  1.52e-02    15s
  23   4.94171156e+05  4.88511108e+05  7.81e-05 7.58e-03  1.23e-02    15s
  24   4.93704393e+05  4.88650535e+05  6.81e-05 7.08e-03  1.10e-02    16s
  25   4.93486675e+05  4.88968712e+05  6.35e-05 5.95e-03  9.83e-03    16s
  26   4.93034140e+05  4.89216083e+05  5.39e-05 5.04e-03  8.31e-03    16s
  27   4.92700684e+05  4.89306360e+05  4.66e-05 4.68e-03  7.39e-03    17s
  28   4.92541662e+05  4.89446368e+05  4.33e-05 4.14e-03  6.74e-03    17s
  29   4.92393724e+05  4.89660278e+05  4.01e-05 3.34e-03  5.95e-03    17s
  30   4.92229393e+05  4.89747133e+05  3.67e-05 3.02e-03  5.40e-03    18s
  31   4.91970155e+05  4.89832153e+05  3.10e-05 2.69e-03  4.65e-03    18s
  32   4.91734773e+05  4.89934911e+05  2.58e-05 2.30e-03  3.92e-03    18s
  33   4.91513108e+05  4.90009866e+05  2.09e-05 2.00e-03  3.27e-03    19s
  34   4.91416468e+05  4.90054287e+05  1.87e-05 1.83e-03  2.97e-03    19s
  35   4.91356060e+05  4.90077815e+05  1.74e-05 1.74e-03  2.78e-03    20s
  36   4.91205395e+05  4.90122474e+05  1.40e-05 1.58e-03  2.36e-03    20s
  37   4.91120282e+05  4.90174401e+05  1.21e-05 1.39e-03  2.06e-03    20s
  38   4.91067468e+05  4.90216068e+05  1.09e-05 1.24e-03  1.85e-03    20s
  39   4.91015231e+05  4.90260534e+05  9.80e-06 1.09e-03  1.64e-03    21s
  40   4.90971895e+05  4.90285260e+05  8.85e-06 9.97e-04  1.50e-03    21s
  41   4.90920525e+05  4.90331266e+05  7.74e-06 8.10e-04  1.28e-03    21s
  42   4.90872186e+05  4.90350176e+05  6.71e-06 7.39e-04  1.14e-03    22s
  43   4.90856783e+05  4.90364797e+05  6.38e-06 6.84e-04  1.07e-03    22s
  44   4.90813039e+05  4.90400360e+05  5.42e-06 5.55e-04  8.99e-04    22s
  45   4.90766571e+05  4.90409271e+05  4.44e-06 5.22e-04  7.78e-04    23s
  46   4.90746653e+05  4.90431996e+05  4.03e-06 4.36e-04  6.85e-04    23s
  47   4.90729602e+05  4.90449767e+05  3.67e-06 3.71e-04  6.09e-04    24s
  48   4.90697162e+05  4.90465133e+05  2.98e-06 3.14e-04  5.05e-04    24s
  49   4.90687367e+05  4.90481607e+05  2.77e-06 2.59e-04  4.48e-04    24s
  50   4.90672021e+05  4.90490392e+05  2.44e-06 2.22e-04  3.95e-04    25s
  51   4.90652560e+05  4.90503618e+05  2.03e-06 1.81e-04  3.24e-04    25s
  52   4.90642926e+05  4.90506358e+05  1.84e-06 1.74e-04  2.97e-04    25s
  53   4.90631025e+05  4.90515084e+05  1.60e-06 1.43e-04  2.52e-04    26s
  54   4.90618431e+05  4.90520453e+05  1.34e-06 1.22e-04  2.13e-04    26s
  55   4.90616121e+05  4.90521220e+05  1.29e-06 1.19e-04  2.06e-04    26s
  56   4.90605716e+05  4.90527260e+05  1.07e-06 9.70e-05  1.71e-04    27s
  57   4.90602088e+05  4.90532489e+05  9.98e-07 7.81e-05  1.51e-04    27s
  58   4.90595777e+05  4.90536192e+05  8.69e-07 6.41e-05  1.30e-04    27s
  59   4.90587069e+05  4.90538341e+05  6.95e-07 5.84e-05  1.06e-04    27s
  60   4.90584041e+05  4.90539472e+05  6.33e-07 5.38e-05  9.69e-05    28s
  61   4.90583282e+05  4.90539970e+05  6.17e-07 5.18e-05  9.42e-05    28s
  62   4.90580364e+05  4.90542803e+05  5.56e-07 4.01e-05  8.16e-05    28s
  63   4.90576020e+05  4.90545015e+05  4.67e-07 2.94e-05  6.74e-05    29s
  64   4.90571172e+05  4.90545496e+05  3.70e-07 2.75e-05  5.58e-05    29s
  65   4.90569791e+05  4.90546580e+05  3.43e-07 2.26e-05  5.04e-05    29s
  66   4.90567778e+05  4.90547093e+05  3.01e-07 2.07e-05  4.50e-05    30s
  67   4.90565885e+05  4.90548052e+05  2.61e-07 1.71e-05  3.88e-05    30s
  68   4.90564108e+05  4.90549047e+05  2.26e-07 1.28e-05  3.27e-05    30s
  69   4.90562529e+05  4.90549280e+05  1.94e-07 1.20e-05  2.88e-05    31s
  70   4.90561593e+05  4.90550306e+05  1.74e-07 8.79e-06  2.45e-05    31s
  71   4.90559654e+05  4.90550636e+05  1.34e-07 7.97e-06  1.96e-05    31s
  72   4.90559189e+05  4.90550873e+05  1.24e-07 7.22e-06  1.81e-05    31s
  73   4.90557633e+05  4.90551298e+05  9.16e-08 5.83e-06  1.38e-05    32s
  74   4.90555916e+05  4.90552138e+05  5.54e-08 3.94e-06  8.21e-06    32s
  75   4.90555788e+05  4.90552214e+05  5.27e-08 3.66e-06  7.76e-06    32s
  76   4.90554549e+05  4.90552735e+05  2.73e-08 1.58e-06  3.94e-06    33s
  77   4.90554339e+05  4.90553127e+05  2.31e-08 3.69e-07  2.62e-06    33s
  78   4.90553767e+05  4.90553167e+05  1.14e-08 1.17e-07  1.30e-06    33s
  79   4.90553497e+05  4.90553175e+05  6.32e-09 9.95e-08  6.96e-07    33s
  80   4.90553367e+05  4.90553180e+05  3.63e-09 6.22e-08  4.07e-07    34s
  81   4.90553212e+05  4.90553191e+05  4.60e-10 3.71e-08  4.73e-08    34s
  82   4.90553211e+05  4.90553191e+05  2.48e-08 3.45e-08  4.47e-08    34s
  83   4.90553211e+05  4.90553191e+05  5.64e-08 3.46e-08  4.47e-08    34s
  84   4.90553211e+05  4.90553191e+05  5.64e-08 3.46e-08  4.47e-08    34s

Barrier solved model in 84 iterations and 34.48 seconds
Optimal objective 4.90553211e+05


Root crossover log...

   73333 DPushes remaining with DInf 2.6624901e-05                35s
    3445 DPushes remaining with DInf 0.0000000e+00                36s
       0 DPushes remaining with DInf 0.0000000e+00                37s

     742 PPushes remaining with PInf 1.3467988e-05                37s
       0 PPushes remaining with PInf 0.0000000e+00                37s

  Push phase complete: Pinf 0.0000000e+00, Dinf 1.4681945e-10     37s


Root simplex log...

Iteration    Objective       Primal Inf.    Dual Inf.      Time
    8319    4.9055319e+05   0.000000e+00   0.000000e+00     37s
    8319    4.9055319e+05   0.000000e+00   0.000000e+00     37s

Solved with barrier

Root relaxation: objective 4.905532e+05, 8319 iterations, 32.06 seconds

    Nodes    |    Current Node    |     Objective Bounds      |     Work
 Expl Unexpl |  Obj  Depth IntInf | Incumbent    BestBd   Gap | It/Node Time

     0     0 490553.191    0 6117 561193.000 490553.191  12.6%     -   38s
H    0     0                    522168.00000 490553.191  6.05%     -   39s
H    0     0                    522123.00000 490553.191  6.05%     -   40s
H    0     0                    521966.00000 490553.191  6.02%     -   40s
     0     0 490555.464    0 6131 521966.000 490555.464  6.02%     -   68s
H    0     0                    521964.00000 490555.464  6.02%     -   68s
H    0     0                    520449.00000 490555.464  5.74%     -  110s
     0     0 490555.464    0 6134 520449.000 490555.464  5.74%     -  111s
     0     0 490561.533    0 6131 520449.000 490561.533  5.74%     -  123s
H    0     0                    520390.00000 490561.533  5.73%     -  125s
     0     0 490561.880    0 6138 520390.000 490561.880  5.73%     -  125s
     0     0 490570.353    0 6157 520390.000 490570.353  5.73%     -  134s
     0     0 490570.872    0 6153 520390.000 490570.872  5.73%     -  136s
     0     0 490570.884    0 6149 520390.000 490570.884  5.73%     -  137s
     0     0 490577.438    0 6377 520390.000 490577.438  5.73%     -  144s
H    0     0                    520181.00000 490577.438  5.69%     -  146s
     0     0 490577.907    0 6392 520181.000 490577.907  5.69%     -  147s
     0     0 490577.936    0 6398 520181.000 490577.936  5.69%     -  147s
     0     0 490583.594    0 6142 520181.000 490583.594  5.69%     -  154s
     0     0 490583.763    0 6423 520181.000 490583.763  5.69%     -  156s
     0     0 490583.881    0 6411 520181.000 490583.881  5.69%     -  157s
     0     0 490583.881    0 6413 520181.000 490583.881  5.69%     -  158s
     0     0 490588.741    0 6411 520181.000 490588.741  5.69%     -  164s
H    0     0                    520164.00000 490588.741  5.69%     -  165s
     0     0 490589.303    0 6516 520164.000 490589.303  5.69%     -  166s
     0     0 490589.332    0 6522 520164.000 490589.332  5.69%     -  167s
     0     0 490592.012    0 6523 520164.000 490592.012  5.69%     -  173s
     0     0 490592.154    0 6438 520164.000 490592.154  5.69%     -  175s
     0     0 490592.199    0 6427 520164.000 490592.199  5.69%     -  176s
     0     0 490596.686    0 6786 520164.000 490596.686  5.68%     -  183s
H    0     0                    520073.00000 490596.686  5.67%     -  184s
     0     0 490597.151    0 6791 520073.000 490597.151  5.67%     -  186s
     0     0 490597.176    0 6792 520073.000 490597.176  5.67%     -  186s
     0     0 490599.190    0 6813 520073.000 490599.190  5.67%     -  193s
H    0     0                    520071.00000 490599.190  5.67%     -  193s
     0     0 490599.422    0 6813 520071.000 490599.422  5.67%     -  195s
     0     0 490599.448    0 6809 520071.000 490599.448  5.67%     -  196s
     0     0 490601.313    0 6577 520071.000 490601.313  5.67%     -  203s
H    0     0                    519962.00000 490601.313  5.65%     -  204s
     0     0 490601.436    0 6580 519962.000 490601.436  5.65%     -  205s
     0     0 490601.457    0 6581 519962.000 490601.457  5.65%     -  205s
     0     0 490604.240    0 6474 519962.000 490604.240  5.65%     -  213s
     0     0 490604.943    0 6836 519962.000 490604.943  5.65%     -  216s
     0     0 490605.057    0 6840 519962.000 490605.057  5.65%     -  217s
     0     0 490605.057    0 6841 519962.000 490605.057  5.65%     -  218s
     0     0 490608.448    0 6759 519962.000 490608.448  5.65%     -  226s
H    0     0                    519948.00000 490608.448  5.64%     -  228s
     0     0 490608.929    0 6841 519948.000 490608.929  5.64%     -  230s
     0     0 490608.950    0 6842 519948.000 490608.950  5.64%     -  230s
     0     0 490609.787    0 6765 519948.000 490609.787  5.64%     -  236s
     0     0 490609.908    0 6766 519948.000 490609.908  5.64%     -  238s
     0     0 490609.923    0 6757 519948.000 490609.923  5.64%     -  239s
     0     0 490612.377    0 6824 519948.000 490612.377  5.64%     -  246s
H    0     0                    519911.00000 490612.377  5.64%     -  247s
     0     0 490612.737    0 6826 519911.000 490612.737  5.64%     -  249s
     0     0 490612.785    0 6822 519911.000 490612.785  5.64%     -  250s
     0     0 490614.425    0 6603 519911.000 490614.425  5.63%     -  256s
     0     0 490614.484    0 6871 519911.000 490614.484  5.63%     -  258s
     0     0 490615.658    0 6524 519911.000 490615.658  5.63%     -  265s
H    0     0                    519762.00000 490615.658  5.61%     -  266s
     0     0 490616.110    0 6625 519762.000 490616.110  5.61%     -  268s
     0     0 490616.165    0 6620 519762.000 490616.165  5.61%     -  269s
     0     0 490617.154    0 6636 519762.000 490617.154  5.61%     -  275s
     0     0 490617.154    0 6619 519762.000 490617.154  5.61%     -  300s

Cutting planes:
  Zero half: 216

Explored 1 nodes (26164 simplex iterations) in 300.04 seconds
Thread count was 16 (of 16 available processors)

Solution count 10: 519762 519911 519948 ... 520449

Time limit reached
Best objective 5.197620000000e+05, best bound 4.906171537040e+05, gap 5.6073%

User-callback calls 23378, time in user-callback 0.30 sec
['/opt/local/stow/gurobi910/linux64/lib/libgurobi91.so']
Result: runtime=300.02sec; objective=519762
Solution written to /autofs/unityaccount/cremi/mdeboute/Bureau/multi-period-flp/solution/instMulti_I50_J250_T12_0_result.txt
